\ Model pbUFLPnldep_5_5_grb.lp
\ LP format - for model browsing. Use MPS format to capture full model detail.
Minimize
  __pwl(w(1)) + __pwl(w(2)) + __pwl(w(3)) + __pwl(w(4)) + __pwl(w(5))
   + 260 x(1,1) + 239 x(1,2) + 418 x(1,3) + 557 x(1,4) + 346 x(1,5)
   + 161 x(2,1) + 288 x(2,2) + 568 x(2,3) + 379 x(2,4) + 392 x(2,5)
   + 672 x(3,1) + 268 x(3,2) + 122 x(3,3) + 295 x(3,4) + 344 x(3,5)
   + 143 x(4,1) + 393 x(4,2) + 29 x(4,3) + 656 x(4,4) + 654 x(4,5)
   + 235 x(5,1) + 329 x(5,2) + 640 x(5,3) + 517 x(5,4) + 329 x(5,5)
Subject To
 R0: x(1,1) + x(2,1) + x(3,1) + x(4,1) + x(5,1) = 1
 R1: - y(1) + x(1,1) <= 0
 R2: - y(2) + x(2,1) <= 0
 R3: - y(3) + x(3,1) <= 0
 R4: - y(4) + x(4,1) <= 0
 R5: - y(5) + x(5,1) <= 0
 R6: x(1,2) + x(2,2) + x(3,2) + x(4,2) + x(5,2) = 1
 R7: - y(1) + x(1,2) <= 0
 R8: - y(2) + x(2,2) <= 0
 R9: - y(3) + x(3,2) <= 0
 R10: - y(4) + x(4,2) <= 0
 R11: - y(5) + x(5,2) <= 0
 R12: x(1,3) + x(2,3) + x(3,3) + x(4,3) + x(5,3) = 1
 R13: - y(1) + x(1,3) <= 0
 R14: - y(2) + x(2,3) <= 0
 R15: - y(3) + x(3,3) <= 0
 R16: - y(4) + x(4,3) <= 0
 R17: - y(5) + x(5,3) <= 0
 R18: x(1,4) + x(2,4) + x(3,4) + x(4,4) + x(5,4) = 1
 R19: - y(1) + x(1,4) <= 0
 R20: - y(2) + x(2,4) <= 0
 R21: - y(3) + x(3,4) <= 0
 R22: - y(4) + x(4,4) <= 0
 R23: - y(5) + x(5,4) <= 0
 R24: x(1,5) + x(2,5) + x(3,5) + x(4,5) + x(5,5) = 1
 R25: - y(1) + x(1,5) <= 0
 R26: - y(2) + x(2,5) <= 0
 R27: - y(3) + x(3,5) <= 0
 R28: - y(4) + x(4,5) <= 0
 R29: - y(5) + x(5,5) <= 0
 R30: w(1) - 49 x(1,1) - 29 x(1,2) - 23 x(1,3) - 40 x(1,4) - 18 x(1,5) = 0
 R31: w(2) - 49 x(2,1) - 29 x(2,2) - 23 x(2,3) - 40 x(2,4) - 18 x(2,5) = 0
 R32: w(3) - 49 x(3,1) - 29 x(3,2) - 23 x(3,3) - 40 x(3,4) - 18 x(3,5) = 0
 R33: w(4) - 49 x(4,1) - 29 x(4,2) - 23 x(4,3) - 40 x(4,4) - 18 x(4,5) = 0
 R34: w(5) - 49 x(5,1) - 29 x(5,2) - 23 x(5,3) - 40 x(5,4) - 18 x(5,5) = 0
Bounds
 y(1) free
 y(2) free
 y(3) free
 y(4) free
 y(5) free
Binaries
 y(1) y(2) y(3) y(4) y(5)
PWLObj
 w(1): (0, 0) (0, 0) (0, 3.00439532669497) 
  (3.86730010470974, 8.499444130010021) 
  (3.86730010470974, 8.499444131680253) 
  (6.512856815284529, 14.64510071602033) 
  (6.512856815284529, 12.81463905646597) 
  (12.83418231195155, 32.22245428510247) 
  (12.83418231195155, 32.02114711904695) 
  (50.45843209324644, 161.6093226264641) 
  (50.45843209324644, 161.609323828454) 
  (74.13599554485168, 175.4541785093709) 
  (74.13599554485168, 147.0052361683964) (159, 287.670499931085)
 w(2): (0, 0) (0, 0) (0, 2.062033016825358) 
  (12.83418231195156, 20.78150990622679) 
  (12.83418231195156, 27.70867881117537) 
  (74.13599554485168, 158.2397345956695) 
  (74.13599554485168, 155.7672381069521) 
  (97.79270994783212, 161.159398904562) 
  (97.79270994783212, 161.1593989049333) 
  (111.2638058983855, 181.695511391726) 
  (111.2638058983855, 177.9966311830207) (159, 308.6010818113335)
 w(3): (0, 0) (0, 0) (0, 4.137200122006187) 
  (3.867300104709753, 11.70415257247285) 
  (3.867300104709753, 11.70415257477281) 
  (6.512856815284594, 20.16702393681508) 
  (6.512856815284594, 17.64638820890412) 
  (12.83418231195146, 44.37190426145226) 
  (12.83418231195146, 44.47507681793712) 
  (74.13599554485162, 253.9898924720301) 
  (74.13599554485162, 238.1155260367225) 
  (111.2638058983855, 276.1806246048009) 
  (111.2638058983855, 285.7015990963137) (159, 495.334220486981)
 w(4): (0, 0) (0, 0) (0, 3.309760001528598) 
  (12.83418231195146, 33.35630889407074) 
  (12.83418231195146, 43.78015545853355) 
  (21.43190347152736, 85.51655815740821) 
  (21.43190347152736, 86.87396264745368) 
  (40.35207387820334, 184.66043902389) 
  (40.35207387820334, 184.6604400376922) 
  (50.45843209324637, 220.1306491414446) 
  (50.45843209324637, 222.5439869113135) 
  (74.13599554485162, 241.6090327014288) 
  (74.13599554485162, 238.1155260367225) 
  (111.2638058983855, 276.1806246048009) 
  (111.2638058983855, 285.7015990963137) (159, 495.334220486981)
 w(5): (0, 0) (0, 0) (0, 4.443659360782481) 
  (6.512856815284557, 20.30735151024647) 
  (6.512856815284557, 20.30735151024671) 
  (12.83418231195155, 51.06290569770341) 
  (12.83418231195155, 51.18163602064242) 
  (74.13599554485168, 292.2899556225743) 
  (74.13599554485168, 232.9591174253282) (159, 455.8712840437955)
End
